NAME : portcgen-25-100
COMMENT : portcgen N=25, seed=100
TYPE : TSP
DIMENSION : 25
EDGE_WEIGHT_TYPE : EUC_2D
NODE_COORD_SECTION
1 77 72
2 98 92
3 72 56
4 69 43
5 74 57
6 77 74
7 71 67
8 75 70
9 70 53
10 104 83
11 38 63
12 77 33
13 91 49
14 95 83
15 84 79
16 73 70
17 95 84
18 94 62
19 95 86
20 87 78
21 107 79
22 93 43
23 77 64
24 70 68
25 77 55
